9
1 0 0 525
2 0 100 111
3 0 414 458
4 0 0 37
5 0 462 481
6 0 290 342
7 0 172 187
8 0 132 164
9 0 35 73
1 2 17
1 3 7
1 4 3
1 5 43
1 6 17
1 7 22
1 8 18
1 9 8
2 1 17
2 3 24
2 4 17
2 5 26
2 6 29
2 7 16
2 8 1
2 9 9
3 1 7
3 2 24
3 4 8
3 5 50
3 6 15
3 7 26
3 8 25
3 9 15
4 1 3
4 2 17
4 3 8
4 5 43
4 6 20
4 7 25
4 8 18
4 9 8
5 1 43
5 2 26
5 3 50
5 4 43
5 6 49
5 7 28
5 8 25
5 9 35
6 1 17
6 2 29
6 3 15
6 4 20
6 5 49
6 7 21
6 8 30
6 9 22
7 1 22
7 2 16
7 3 26
7 4 25
7 5 28
7 6 21
7 8 16
7 9 18
8 1 18
8 2 1
8 3 25
8 4 18
8 5 25
8 6 30
8 7 16
8 9 10
9 1 8
9 2 9
9 3 15
9 4 8
9 5 35
9 6 22
9 7 18
9 8 10
